NAME : amz2269.1608295_91795.tour
COMMENT : Cost = 1608295_91795
COMMENT : Found by LKH-AMZ [Keld Helsgaun] Sun May 11 15:10:31 2025
COMMENT : TW viol.: 0 #: 0
TYPE : TOUR
DIMENSION : 123
TOUR_SECTION
87
113
50
38
58
123
31
64
16
77
94
101
21
79
59
67
69
107
10
48
66
75
25
65
72
73
82
88
68
117
29
96
78
24
60
34
4
54
26
84
116
91
112
51
23
55
52
41
106
30
46
9
40
71
7
103
56
109
98
108
49
62
115
120
45
12
92
99
8
28
105
95
63
5
93
11
13
6
14
22
61
110
70
37
2
53
57
74
43
20
90
27
76
85
104
15
35
18
114
1
83
39
97
17
119
121
33
36
122
86
118
111
80
42
3
19
89
32
81
47
102
100
44
-1
EOF
